NAME : amz0760.147952_144952.tour
COMMENT : Cost = 147952_144952
COMMENT : Found by LKH-AMZ [Keld Helsgaun] Sun May 11 12:43:40 2025
COMMENT : TW viol.: 0 #: 0
TYPE : TOUR
DIMENSION : 121
TOUR_SECTION
38
46
36
117
51
24
47
29
19
96
45
42
18
101
89
2
27
53
112
14
77
109
98
15
48
76
44
106
16
35
93
64
30
26
67
43
13
55
3
84
31
52
95
65
60
49
104
1
80
57
9
25
81
40
115
63
33
56
10
5
87
61
70
39
62
8
78
58
68
82
12
119
28
17
91
6
111
113
50
92
66
102
69
97
71
107
108
22
118
41
4
54
34
121
59
20
100
120
11
94
86
21
74
110
37
73
114
7
72
79
23
32
88
103
90
99
83
105
85
116
75
-1
EOF
